22877 20123 2426
25094 13906 2064
24742 17258 2286
18249 22751 2226
21493 18507 2549
20488 17512 2555
22404 20596 2245
19350 22650 2160
21129 21871 2212
21944 18056 2542
21218 19782 2535
22676 18324 2520
17878 23122 2103
18100 22900 2186
24759 17241 2265
18609 22391 2314
23697 18303 2459
19439 22561 2235
24650 17350 2377
20645 19355 2550
21571 20429 2511
20976 21024 2481
21829 19171 2535
24977 16023 2235
16885 23115 2147
16761 23239 2003
18959 22041 2382
22157 18843 2535
23801 19199 2399
22110 20890 2414
18521 22479 2295
25047 14953 2117
22891 19109 2502
21020 19980 2534
23557 18443 2469
23216 19784 2421
20299 21701 2419
15727 23273 1981
21760 21240 2393
16764 23236 2051
20648 20352 2525
21382 21618 2343
19511 21489 2444
15771 23229 2070
17875 23125 2080
24364 18636 2372
19432 21568 2436
20273 19727 2541
19496 22504 2271
